c n orig vars 76
p cnf 292 900
77 -1 0
77 -2 0
-77 1 2 0
78 -3 0
78 -4 0
-78 3 4 0
79 -5 0
79 -6 0
-79 5 6 0
80 -7 0
80 -8 0
-80 7 8 0
81 -9 0
81 -10 0
-81 9 10 0
82 -11 0
82 -12 0
-82 11 12 0
83 -13 0
83 -14 0
-83 13 14 0
84 -15 0
84 -16 0
-84 15 16 0
85 -17 0
85 -18 0
-85 17 18 0
86 -19 0
86 -20 0
-86 19 20 0
-87 77 0
-87 78 0
-87 79 0
-87 80 0
-87 81 0
-87 82 0
-87 83 0
-87 84 0
-87 85 0
-87 86 0
87 -77 -78 -79 -80 -81 -82 -83 -84 -85 -86 0
-87 0
88 -21 0
88 -29 0
88 -37 0
88 -45 0
88 -53 0
88 -61 0
88 -69 0
-88 21 29 37 45 53 61 69 0
89 -22 0
89 -30 0
89 -38 0
89 -46 0
89 -54 0
89 -62 0
89 -70 0
-89 22 30 38 46 54 62 70 0
90 -23 0
90 -31 0
90 -39 0
90 -47 0
90 -55 0
90 -63 0
90 -71 0
-90 23 31 39 47 55 63 71 0
91 -24 0
91 -32 0
91 -40 0
91 -48 0
91 -56 0
91 -64 0
91 -72 0
-91 24 32 40 48 56 64 72 0
92 -25 0
92 -33 0
92 -41 0
92 -49 0
92 -57 0
92 -65 0
92 -73 0
-92 25 33 41 49 57 65 73 0
93 -26 0
93 -34 0
93 -42 0
93 -50 0
93 -58 0
93 -66 0
93 -74 0
-93 26 34 42 50 58 66 74 0
94 -27 0
94 -35 0
94 -43 0
94 -51 0
94 -59 0
94 -67 0
94 -75 0
-94 27 35 43 51 59 67 75 0
95 -28 0
95 -36 0
95 -44 0
95 -52 0
95 -60 0
95 -68 0
95 -76 0
-95 28 36 44 52 60 68 76 0
96 21 0
96 22 0
-96 -21 -22 0
97 21 0
97 23 0
-97 -21 -23 0
98 21 0
98 24 0
-98 -21 -24 0
99 21 0
99 25 0
-99 -21 -25 0
100 21 0
100 26 0
-100 -21 -26 0
101 21 0
101 27 0
-101 -21 -27 0
102 21 0
102 28 0
-102 -21 -28 0
103 22 0
103 23 0
-103 -22 -23 0
104 22 0
104 24 0
-104 -22 -24 0
105 22 0
105 25 0
-105 -22 -25 0
106 22 0
106 26 0
-106 -22 -26 0
107 22 0
107 27 0
-107 -22 -27 0
108 22 0
108 28 0
-108 -22 -28 0
109 23 0
109 24 0
-109 -23 -24 0
110 23 0
110 25 0
-110 -23 -25 0
111 23 0
111 26 0
-111 -23 -26 0
112 23 0
112 27 0
-112 -23 -27 0
113 23 0
113 28 0
-113 -23 -28 0
114 24 0
114 25 0
-114 -24 -25 0
115 24 0
115 26 0
-115 -24 -26 0
116 24 0
116 27 0
-116 -24 -27 0
117 24 0
117 28 0
-117 -24 -28 0
118 25 0
118 26 0
-118 -25 -26 0
119 25 0
119 27 0
-119 -25 -27 0
120 25 0
120 28 0
-120 -25 -28 0
121 26 0
121 27 0
-121 -26 -27 0
122 26 0
122 28 0
-122 -26 -28 0
123 27 0
123 28 0
-123 -27 -28 0
124 29 0
124 30 0
-124 -29 -30 0
125 29 0
125 31 0
-125 -29 -31 0
126 29 0
126 32 0
-126 -29 -32 0
127 29 0
127 33 0
-127 -29 -33 0
128 29 0
128 34 0
-128 -29 -34 0
129 29 0
129 35 0
-129 -29 -35 0
130 29 0
130 36 0
-130 -29 -36 0
131 30 0
131 31 0
-131 -30 -31 0
132 30 0
132 32 0
-132 -30 -32 0
133 30 0
133 33 0
-133 -30 -33 0
134 30 0
134 34 0
-134 -30 -34 0
135 30 0
135 35 0
-135 -30 -35 0
136 30 0
136 36 0
-136 -30 -36 0
137 31 0
137 32 0
-137 -31 -32 0
138 31 0
138 33 0
-138 -31 -33 0
139 31 0
139 34 0
-139 -31 -34 0
140 31 0
140 35 0
-140 -31 -35 0
141 31 0
141 36 0
-141 -31 -36 0
142 32 0
142 33 0
-142 -32 -33 0
143 32 0
143 34 0
-143 -32 -34 0
144 32 0
144 35 0
-144 -32 -35 0
145 32 0
145 36 0
-145 -32 -36 0
146 33 0
146 34 0
-146 -33 -34 0
147 33 0
147 35 0
-147 -33 -35 0
148 33 0
148 36 0
-148 -33 -36 0
149 34 0
149 35 0
-149 -34 -35 0
150 34 0
150 36 0
-150 -34 -36 0
151 35 0
151 36 0
-151 -35 -36 0
152 37 0
152 38 0
-152 -37 -38 0
153 37 0
153 39 0
-153 -37 -39 0
154 37 0
154 40 0
-154 -37 -40 0
155 37 0
155 41 0
-155 -37 -41 0
156 37 0
156 42 0
-156 -37 -42 0
157 37 0
157 43 0
-157 -37 -43 0
158 37 0
158 44 0
-158 -37 -44 0
159 38 0
159 39 0
-159 -38 -39 0
160 38 0
160 40 0
-160 -38 -40 0
161 38 0
161 41 0
-161 -38 -41 0
162 38 0
162 42 0
-162 -38 -42 0
163 38 0
163 43 0
-163 -38 -43 0
164 38 0
164 44 0
-164 -38 -44 0
165 39 0
165 40 0
-165 -39 -40 0
166 39 0
166 41 0
-166 -39 -41 0
167 39 0
167 42 0
-167 -39 -42 0
168 39 0
168 43 0
-168 -39 -43 0
169 39 0
169 44 0
-169 -39 -44 0
170 40 0
170 41 0
-170 -40 -41 0
171 40 0
171 42 0
-171 -40 -42 0
172 40 0
172 43 0
-172 -40 -43 0
173 40 0
173 44 0
-173 -40 -44 0
174 41 0
174 42 0
-174 -41 -42 0
175 41 0
175 43 0
-175 -41 -43 0
176 41 0
176 44 0
-176 -41 -44 0
177 42 0
177 43 0
-177 -42 -43 0
178 42 0
178 44 0
-178 -42 -44 0
179 43 0
179 44 0
-179 -43 -44 0
180 45 0
180 46 0
-180 -45 -46 0
181 45 0
181 47 0
-181 -45 -47 0
182 45 0
182 48 0
-182 -45 -48 0
183 45 0
183 49 0
-183 -45 -49 0
184 45 0
184 50 0
-184 -45 -50 0
185 45 0
185 51 0
-185 -45 -51 0
186 45 0
186 52 0
-186 -45 -52 0
187 46 0
187 47 0
-187 -46 -47 0
188 46 0
188 48 0
-188 -46 -48 0
189 46 0
189 49 0
-189 -46 -49 0
190 46 0
190 50 0
-190 -46 -50 0
191 46 0
191 51 0
-191 -46 -51 0
192 46 0
192 52 0
-192 -46 -52 0
193 47 0
193 48 0
-193 -47 -48 0
194 47 0
194 49 0
-194 -47 -49 0
195 47 0
195 50 0
-195 -47 -50 0
196 47 0
196 51 0
-196 -47 -51 0
197 47 0
197 52 0
-197 -47 -52 0
198 48 0
198 49 0
-198 -48 -49 0
199 48 0
199 50 0
-199 -48 -50 0
200 48 0
200 51 0
-200 -48 -51 0
201 48 0
201 52 0
-201 -48 -52 0
202 49 0
202 50 0
-202 -49 -50 0
203 49 0
203 51 0
-203 -49 -51 0
204 49 0
204 52 0
-204 -49 -52 0
205 50 0
205 51 0
-205 -50 -51 0
206 50 0
206 52 0
-206 -50 -52 0
207 51 0
207 52 0
-207 -51 -52 0
208 53 0
208 54 0
-208 -53 -54 0
209 53 0
209 55 0
-209 -53 -55 0
210 53 0
210 56 0
-210 -53 -56 0
211 53 0
211 57 0
-211 -53 -57 0
212 53 0
212 58 0
-212 -53 -58 0
213 53 0
213 59 0
-213 -53 -59 0
214 53 0
214 60 0
-214 -53 -60 0
215 54 0
215 55 0
-215 -54 -55 0
216 54 0
216 56 0
-216 -54 -56 0
217 54 0
217 57 0
-217 -54 -57 0
218 54 0
218 58 0
-218 -54 -58 0
219 54 0
219 59 0
-219 -54 -59 0
220 54 0
220 60 0
-220 -54 -60 0
221 55 0
221 56 0
-221 -55 -56 0
222 55 0
222 57 0
-222 -55 -57 0
223 55 0
223 58 0
-223 -55 -58 0
224 55 0
224 59 0
-224 -55 -59 0
225 55 0
225 60 0
-225 -55 -60 0
226 56 0
226 57 0
-226 -56 -57 0
227 56 0
227 58 0
-227 -56 -58 0
228 56 0
228 59 0
-228 -56 -59 0
229 56 0
229 60 0
-229 -56 -60 0
230 57 0
230 58 0
-230 -57 -58 0
231 57 0
231 59 0
-231 -57 -59 0
232 57 0
232 60 0
-232 -57 -60 0
233 58 0
233 59 0
-233 -58 -59 0
234 58 0
234 60 0
-234 -58 -60 0
235 59 0
235 60 0
-235 -59 -60 0
236 61 0
236 62 0
-236 -61 -62 0
237 61 0
237 63 0
-237 -61 -63 0
238 61 0
238 64 0
-238 -61 -64 0
239 61 0
239 65 0
-239 -61 -65 0
240 61 0
240 66 0
-240 -61 -66 0
241 61 0
241 67 0
-241 -61 -67 0
242 61 0
242 68 0
-242 -61 -68 0
243 62 0
243 63 0
-243 -62 -63 0
244 62 0
244 64 0
-244 -62 -64 0
245 62 0
245 65 0
-245 -62 -65 0
246 62 0
246 66 0
-246 -62 -66 0
247 62 0
247 67 0
-247 -62 -67 0
248 62 0
248 68 0
-248 -62 -68 0
249 63 0
249 64 0
-249 -63 -64 0
250 63 0
250 65 0
-250 -63 -65 0
251 63 0
251 66 0
-251 -63 -66 0
252 63 0
252 67 0
-252 -63 -67 0
253 63 0
253 68 0
-253 -63 -68 0
254 64 0
254 65 0
-254 -64 -65 0
255 64 0
255 66 0
-255 -64 -66 0
256 64 0
256 67 0
-256 -64 -67 0
257 64 0
257 68 0
-257 -64 -68 0
258 65 0
258 66 0
-258 -65 -66 0
259 65 0
259 67 0
-259 -65 -67 0
260 65 0
260 68 0
-260 -65 -68 0
261 66 0
261 67 0
-261 -66 -67 0
262 66 0
262 68 0
-262 -66 -68 0
263 67 0
263 68 0
-263 -67 -68 0
264 69 0
264 70 0
-264 -69 -70 0
265 69 0
265 71 0
-265 -69 -71 0
266 69 0
266 72 0
-266 -69 -72 0
267 69 0
267 73 0
-267 -69 -73 0
268 69 0
268 74 0
-268 -69 -74 0
269 69 0
269 75 0
-269 -69 -75 0
270 69 0
270 76 0
-270 -69 -76 0
271 70 0
271 71 0
-271 -70 -71 0
272 70 0
272 72 0
-272 -70 -72 0
273 70 0
273 73 0
-273 -70 -73 0
274 70 0
274 74 0
-274 -70 -74 0
275 70 0
275 75 0
-275 -70 -75 0
276 70 0
276 76 0
-276 -70 -76 0
277 71 0
277 72 0
-277 -71 -72 0
278 71 0
278 73 0
-278 -71 -73 0
279 71 0
279 74 0
-279 -71 -74 0
280 71 0
280 75 0
-280 -71 -75 0
281 71 0
281 76 0
-281 -71 -76 0
282 72 0
282 73 0
-282 -72 -73 0
283 72 0
283 74 0
-283 -72 -74 0
284 72 0
284 75 0
-284 -72 -75 0
285 72 0
285 76 0
-285 -72 -76 0
286 73 0
286 74 0
-286 -73 -74 0
287 73 0
287 75 0
-287 -73 -75 0
288 73 0
288 76 0
-288 -73 -76 0
289 74 0
289 75 0
-289 -74 -75 0
290 74 0
290 76 0
-290 -74 -76 0
291 75 0
291 76 0
-291 -75 -76 0
-292 88 0
-292 89 0
-292 90 0
-292 91 0
-292 92 0
-292 93 0
-292 94 0
-292 95 0
-292 96 0
-292 97 0
-292 98 0
-292 99 0
-292 100 0
-292 101 0
-292 102 0
-292 103 0
-292 104 0
-292 105 0
-292 106 0
-292 107 0
-292 108 0
-292 109 0
-292 110 0
-292 111 0
-292 112 0
-292 113 0
-292 114 0
-292 115 0
-292 116 0
-292 117 0
-292 118 0
-292 119 0
-292 120 0
-292 121 0
-292 122 0
-292 123 0
-292 124 0
-292 125 0
-292 126 0
-292 127 0
-292 128 0
-292 129 0
-292 130 0
-292 131 0
-292 132 0
-292 133 0
-292 134 0
-292 135 0
-292 136 0
-292 137 0
-292 138 0
-292 139 0
-292 140 0
-292 141 0
-292 142 0
-292 143 0
-292 144 0
-292 145 0
-292 146 0
-292 147 0
-292 148 0
-292 149 0
-292 150 0
-292 151 0
-292 152 0
-292 153 0
-292 154 0
-292 155 0
-292 156 0
-292 157 0
-292 158 0
-292 159 0
-292 160 0
-292 161 0
-292 162 0
-292 163 0
-292 164 0
-292 165 0
-292 166 0
-292 167 0
-292 168 0
-292 169 0
-292 170 0
-292 171 0
-292 172 0
-292 173 0
-292 174 0
-292 175 0
-292 176 0
-292 177 0
-292 178 0
-292 179 0
-292 180 0
-292 181 0
-292 182 0
-292 183 0
-292 184 0
-292 185 0
-292 186 0
-292 187 0
-292 188 0
-292 189 0
-292 190 0
-292 191 0
-292 192 0
-292 193 0
-292 194 0
-292 195 0
-292 196 0
-292 197 0
-292 198 0
-292 199 0
-292 200 0
-292 201 0
-292 202 0
-292 203 0
-292 204 0
-292 205 0
-292 206 0
-292 207 0
-292 208 0
-292 209 0
-292 210 0
-292 211 0
-292 212 0
-292 213 0
-292 214 0
-292 215 0
-292 216 0
-292 217 0
-292 218 0
-292 219 0
-292 220 0
-292 221 0
-292 222 0
-292 223 0
-292 224 0
-292 225 0
-292 226 0
-292 227 0
-292 228 0
-292 229 0
-292 230 0
-292 231 0
-292 232 0
-292 233 0
-292 234 0
-292 235 0
-292 236 0
-292 237 0
-292 238 0
-292 239 0
-292 240 0
-292 241 0
-292 242 0
-292 243 0
-292 244 0
-292 245 0
-292 246 0
-292 247 0
-292 248 0
-292 249 0
-292 250 0
-292 251 0
-292 252 0
-292 253 0
-292 254 0
-292 255 0
-292 256 0
-292 257 0
-292 258 0
-292 259 0
-292 260 0
-292 261 0
-292 262 0
-292 263 0
-292 264 0
-292 265 0
-292 266 0
-292 267 0
-292 268 0
-292 269 0
-292 270 0
-292 271 0
-292 272 0
-292 273 0
-292 274 0
-292 275 0
-292 276 0
-292 277 0
-292 278 0
-292 279 0
-292 280 0
-292 281 0
-292 282 0
-292 283 0
-292 284 0
-292 285 0
-292 286 0
-292 287 0
-292 288 0
-292 289 0
-292 290 0
-292 291 0
292 -88 -89 -90 -91 -92 -93 -94 -95 -96 -97 -98 -99 -100 -101 -102 -103 -104 -105 -106 -107 -108 -109 -110 -111 -112 -113 -114 -115 -116 -117 -118 -119 -120 -121 -122 -123 -124 -125 -126 -127 -128 -129 -130 -131 -132 -133 -134 -135 -136 -137 -138 -139 -140 -141 -142 -143 -144 -145 -146 -147 -148 -149 -150 -151 -152 -153 -154 -155 -156 -157 -158 -159 -160 -161 -162 -163 -164 -165 -166 -167 -168 -169 -170 -171 -172 -173 -174 -175 -176 -177 -178 -179 -180 -181 -182 -183 -184 -185 -186 -187 -188 -189 -190 -191 -192 -193 -194 -195 -196 -197 -198 -199 -200 -201 -202 -203 -204 -205 -206 -207 -208 -209 -210 -211 -212 -213 -214 -215 -216 -217 -218 -219 -220 -221 -222 -223 -224 -225 -226 -227 -228 -229 -230 -231 -232 -233 -234 -235 -236 -237 -238 -239 -240 -241 -242 -243 -244 -245 -246 -247 -248 -249 -250 -251 -252 -253 -254 -255 -256 -257 -258 -259 -260 -261 -262 -263 -264 -265 -266 -267 -268 -269 -270 -271 -272 -273 -274 -275 -276 -277 -278 -279 -280 -281 -282 -283 -284 -285 -286 -287 -288 -289 -290 -291 0
-292 0
